c b=4,c=529
p cnf 17 25
4 -8 0
4 -12 0
4 -17 0
-4 8 0
-4 12 0
-4 17 0
3 -7 0
3 -11 0
3 -16 0
-3 7 0
-3 11 0
-3 16 0
2 -6 0
2 -10 0
2 -15 0
-2 6 0
-2 10 0
-2 15 0
1 -5 0
1 -9 0
1 -14 0
-1 5 0
-1 9 0
-1 14 0
-13 0
